
(set-logic HORN)
(declare-fun zero_114 () Int)
(declare-fun succ_111 (Int) Int)
(declare-datatypes ((Bool_268 0)) (((false_268) (true_268))))
(declare-fun diseqBool_127 (Bool_268 Bool_268) Bool)
(declare-fun isfalse_127 (Bool_268) Bool)
(declare-fun istrue_127 (Bool_268) Bool)
(assert (isfalse_127 false_268))
(assert (istrue_127 true_268))
(assert (diseqBool_127 false_268 true_268))
(assert (diseqBool_127 true_268 false_268))
(declare-fun and_268 (Bool_268 Bool_268 Bool_268) Bool)
(declare-fun or_274 (Bool_268 Bool_268 Bool_268) Bool)
(declare-fun hence_268 (Bool_268 Bool_268 Bool_268) Bool)
(declare-fun not_272 (Bool_268 Bool_268) Bool)
(assert (and_268 false_268 false_268 false_268))
(assert (and_268 false_268 true_268 false_268))
(assert (and_268 false_268 false_268 true_268))
(assert (and_268 true_268 true_268 true_268))
(assert (or_274 false_268 false_268 false_268))
(assert (or_274 true_268 true_268 false_268))
(assert (or_274 true_268 false_268 true_268))
(assert (or_274 true_268 true_268 true_268))
(assert (hence_268 true_268 false_268 false_268))
(assert (hence_268 false_268 true_268 false_268))
(assert (hence_268 true_268 false_268 true_268))
(assert (hence_268 true_268 true_268 true_268))
(assert (not_272 true_268 false_268))
(assert (not_272 false_268 true_268))
(declare-fun diseqInt (Int Int) Bool)
(declare-fun p_321 (Int Int) Bool)
(declare-fun iszero_111 (Int) Bool)
(declare-fun issucc_111 (Int) Bool)
(assert (forall ((x_50096 Int))
	(p_321 x_50096 (succ_111 x_50096))))
(assert (iszero_111 zero_114))
(assert (forall ((x_50098 Int))
	(issucc_111 (succ_111 x_50098))))
(assert (forall ((x_50099 Int))
	(diseqInt zero_114 (succ_111 x_50099))))
(assert (forall ((x_50100 Int))
	(diseqInt (succ_111 x_50100) zero_114)))
(assert (forall ((x_50101 Int) (x_50102 Int))
	(=> (diseqInt x_50101 x_50102) (diseqInt (succ_111 x_50101) (succ_111 x_50102)))))
(declare-fun lt_285 (Bool_268 Int Int) Bool)
(assert (forall ((x_50082 Bool_268) (n_91 Int) (z_1602 Int))
	(=> (lt_285 x_50082 n_91 z_1602) (lt_285 x_50082 (succ_111 n_91) (succ_111 z_1602)))))
(assert (forall ((z_1602 Int))
	(lt_285 true_268 zero_114 (succ_111 z_1602))))
(assert (forall ((x_50078 Int))
	(lt_285 false_268 x_50078 zero_114)))
(declare-fun leq_44 (Bool_268 Int Int) Bool)
(assert (forall ((x_50086 Bool_268) (x_50080 Int) (z_1603 Int))
	(=> (leq_44 x_50086 z_1603 x_50080) (leq_44 x_50086 (succ_111 z_1603) (succ_111 x_50080)))))
(assert (forall ((z_1603 Int))
	(leq_44 false_268 (succ_111 z_1603) zero_114)))
(assert (forall ((y_1794 Int))
	(leq_44 true_268 zero_114 y_1794)))
(assert (forall ((x_50081 Int) (y_1795 Int))
	(=> (and true (diseqInt x_50081 y_1795) (leq_44 true_268 x_50081 y_1795) (lt_285 false_268 x_50081 y_1795)) false)))
(check-sat)
